objective value:                     2.70501429613803
x(0,4,0)                                            1 	(obj:0)
x(1,10,0)                                           1 	(obj:0)
x(2,3,0)                                            1 	(obj:0)
x(3,1,0)                                            1 	(obj:0)
x(4,2,0)                                            1 	(obj:0)
x(10,0,0)                                           1 	(obj:0)
xc(0,10)                                            1 	(obj:0)
xc(1,9)                                             1 	(obj:0)
xc(4,7)                                             1 	(obj:0)
u(1,0)                               1.73616793922793 	(obj:0)
u(2,0)                              0.955408023509424 	(obj:0)
u(3,0)                               1.50512107727826 	(obj:0)
u(4,0)                              0.391329685553803 	(obj:0)
u(10,0)                              2.70501429613803 	(obj:0)
u(11,0)                             0.322767293678801 	(obj:0)
u(12,0)                               0.1321542631635 	(obj:0)
u(13,0)                             0.193093346552301 	(obj:0)
u(18,0)                            0.0349321189664007 	(obj:0)
u(19,0)                               0.5120309372923 	(obj:0)
f(0,4,0)                                            1 	(obj:0)
f(1,9,0)                                            1 	(obj:0)
f(1,9,1)                                            1 	(obj:0)
f(1,9,2)                                            1 	(obj:0)
f(1,9,3)                                            1 	(obj:0)
f(1,9,4)                                            1 	(obj:0)
f(2,3,0)                                            1 	(obj:0)
f(2,3,2)                                            1 	(obj:0)
f(2,3,4)                                            1 	(obj:0)
f(3,1,0)                                            1 	(obj:0)
f(3,1,2)                                            1 	(obj:0)
f(3,1,3)                                            1 	(obj:0)
f(3,1,4)                                            1 	(obj:0)
f(4,2,0)                                            1 	(obj:0)
f(4,2,4)                                            1 	(obj:0)
z_r(0,)                              2.70501429613803 	(obj:0)
z                                    2.70501429613803 	(obj:1)
